TYPE : Vertex Cover
DIMENSION: 39
EDGE_DATA_SECTION:
0 8
0 11
0 13
0 19
0 20
0 21
0 22
0 23
0 29
0 30
0 32
0 33
0 36
1 24
1 29
1 30
1 33
1 35
2 3
2 6
2 9
2 16
2 26
2 27
2 28
2 32
2 33
2 34
2 36
3 11
3 26
3 33
3 34
3 35
4 15
4 18
4 22
4 29
4 34
4 37
5 8
5 10
5 11
5 12
5 14
5 15
5 17
5 20
5 25
5 28
5 36
5 37
6 9
6 10
6 11
6 17
6 20
6 24
6 33
6 38
7 9
7 15
7 24
7 25
7 31
7 34
7 35
8 11
8 22
8 27
8 31
8 33
8 34
8 35
9 10
9 15
9 18
9 20
9 25
10 12
10 13
10 15
10 21
10 25
10 26
10 37
11 19
11 25
11 31
11 35
12 14
12 17
12 20
12 25
12 26
12 33
12 36
12 38
13 17
13 22
13 30
13 31
13 33
13 37
14 16
14 18
14 20
14 25
14 26
14 29
14 35
14 38
15 23
15 35
15 37
15 38
16 19
16 22
16 32
16 34
16 37
17 21
17 22
17 23
17 25
17 28
17 30
17 31
17 33
17 34
17 37
17 38
18 24
18 38
19 20
19 23
19 25
19 26
19 34
19 38
20 21
20 22
20 23
20 26
20 29
20 36
20 37
20 38
22 25
22 29
22 32
22 34
22 35
22 38
23 26
23 31
23 35
23 37
24 27
24 30
24 32
24 35
25 28
25 29
25 30
25 35
27 36
28 31
28 33
28 36
29 33
29 35
29 36
30 35
30 36
31 34
31 35
33 38
34 37
-1
VERTEX_DEGREE:
13.0 5.0 11.0 6.0 6.0 12.0 9.0 7.0 9.0 8.0 10.0 9.0 10.0 8.0 10.0 9.0 7.0 15.0 5.0 9.0 15.0 4.0 13.0 9.0 8.0 14.0 8.0 4.0 7.0 10.0 8.0 9.0 5.0 12.0 11.0 14.0 9.0 10.0 10.0
VERTEX_COVER:
0 1 2 4 5 8 9 10 11 13 14 15 16 17 20 22 23 24 25 26 31 33 34 35 36 38
EOF
